* ENCODING=ISO-8859-1
NAME          CPLEX
ROWS
 N  obj1    
 G  c1      
 G  c2      
 G  c3      
 G  c4      
 G  c5      
 G  c6      
 G  c7      
 G  c8      
 G  c9      
 G  c10     
 G  c11     
 G  c12     
 G  c13     
 G  c14     
 G  c15     
 G  c16     
 G  c17     
 G  c18     
 G  c19     
 G  c20     
 G  c21     
 G  c22     
 G  c23     
 G  c24     
 G  c25     
 G  c26     
 G  c27     
 G  c28     
 G  c29     
 G  c30     
 G  c31     
 G  c32     
 G  c33     
 G  c34     
 G  c35     
 G  c36     
 G  c37     
 G  c38     
 G  c39     
 G  c40     
COLUMNS
    MARK0000  'MARKER'                 'INTORG'
    x1        obj1                            1
    x1        c9                            558
    x1        c23                           623
    x1        c27                           451
    x1        c28                           115
    x1        c35                           797
    x2        obj1                            1
    x2        c4                            119
    x2        c8                            542
    x2        c17                           229
    x2        c18                           151
    x2        c22                           727
    x2        c23                           440
    x2        c32                           109
    x3        obj1                            1
    x3        c9                            288
    x3        c14                           745
    x3        c23                           298
    x3        c26                           536
    x3        c30                           308
    x3        c39                           635
    x4        obj1                            1
    x4        c4                            220
    x4        c6                            394
    x4        c9                            425
    x4        c18                           396
    x4        c21                           114
    x4        c29                           338
    x4        c36                           244
    x4        c37                           286
    x4        c40                           422
    x5        obj1                            1
    x5        c5                            777
    x5        c14                           893
    x5        c34                           745
    x5        c35                           473
    x6        obj1                            1
    x6        c7                            810
    x6        c15                           927
    x6        c21                           893
    x6        c26                           158
    x6        c40                           397
    x7        obj1                            1
    x7        c5                            339
    x7        c12                           728
    x7        c18                           431
    x7        c22                           720
    x7        c40                           319
    x8        obj1                            1
    x8        c4                            447
    x8        c19                           300
    x9        obj1                            1
    x9        c2                            564
    x9        c23                           851
    x10       obj1                            1
    x10       c2                            632
    x10       c16                           246
    x10       c29                           575
    x11       obj1                            1
    x11       c12                           888
    x11       c15                           780
    x11       c16                           402
    x11       c18                           834
    x11       c22                           657
    x11       c24                           870
    x12       obj1                            1
    x12       c14                           754
    x13       obj1                            1
    x13       c14                           749
    x13       c22                           758
    x13       c31                           311
    x13       c33                           991
    x13       c39                           375
    x14       obj1                            1
    x14       c3                            986
    x14       c7                            765
    x14       c13                           897
    x14       c15                           839
    x14       c26                           186
    x14       c38                           156
    x14       c39                           798
    x15       obj1                            1
    x15       c7                            117
    x15       c23                           950
    x15       c39                           806
    x16       obj1                            1
    x16       c17                           789
    x17       obj1                            1
    x17       c9                            214
    x17       c15                           464
    x18       obj1                            1
    x18       c19                           305
    x18       c29                           995
    x18       c34                           236
    x19       obj1                            1
    x19       c3                            712
    x19       c7                            773
    x19       c17                           170
    x19       c37                           121
    x20       obj1                            1
    x20       c7                            360
    x20       c19                           940
    x20       c29                           116
    x21       obj1                            1
    x21       c1                            435
    x21       c8                            781
    x22       obj1                            1
    x22       c14                           299
    x22       c15                           521
    x22       c19                           850
    x22       c28                           530
    x22       c35                           773
    x22       c36                           241
    x22       c37                           145
    x23       obj1                            1
    x23       c4                            901
    x23       c6                            417
    x23       c8                            450
    x23       c14                           421
    x23       c20                           227
    x23       c25                           522
    x23       c26                           157
    x23       c29                           987
    x24       obj1                            1
    x24       c4                            148
    x24       c10                           247
    x24       c14                           813
    x24       c29                           555
    x24       c37                           909
    x24       c38                           210
    x25       obj1                            1
    x25       c3                            316
    x25       c4                            187
    x25       c10                           434
    x25       c21                           933
    x25       c23                           110
    x26       obj1                            1
    x26       c28                           251
    x27       obj1                            1
    x27       c3                            774
    x27       c7                            907
    x27       c18                           970
    x27       c27                           382
    x28       obj1                            1
    x28       c20                           658
    x28       c30                           620
    x28       c31                           812
    x28       c32                           939
    x28       c38                           205
    x29       obj1                            1
    x29       c4                            966
    x29       c5                            788
    x29       c8                            664
    x29       c24                           501
    x29       c25                           249
    x29       c26                           854
    x29       c35                           646
    x29       c39                           248
    x30       obj1                            1
    x30       c7                            569
    x30       c12                           935
    x30       c18                           608
    x30       c39                           925
    x30       c40                           456
    x31       obj1                            1
    x31       c8                            135
    x31       c12                           751
    x32       obj1                            1
    x32       c9                            227
    x32       c10                           200
    x32       c12                           516
    x33       obj1                            1
    x33       c6                            420
    x33       c19                           208
    x33       c29                           797
    x33       c31                           391
    x34       obj1                            1
    x34       c5                            810
    x34       c7                            477
    x34       c19                           787
    x34       c25                           710
    x34       c38                           168
    x35       obj1                            1
    x35       c5                            142
    x35       c16                           803
    x35       c18                           355
    x35       c25                           620
    x35       c36                           927
    x36       obj1                            1
    x36       c6                            280
    x36       c14                           956
    x36       c20                           167
    x36       c28                           576
    x36       c35                           586
    x37       obj1                            1
    x37       c19                           422
    x37       c22                           727
    x37       c29                           424
    x37       c35                           360
    x38       obj1                            1
    x38       c6                            848
    x38       c9                            388
    x38       c16                           239
    x38       c18                           616
    x38       c20                           369
    x38       c21                           877
    x38       c22                           769
    x38       c27                           172
    x38       c29                           705
    x38       c30                           531
    x38       c31                           695
    x38       c39                           666
    x39       obj1                            1
    x39       c1                            664
    x39       c3                            929
    x39       c9                            394
    x39       c21                           550
    x39       c22                           894
    x39       c35                           417
    x40       obj1                            1
    x40       c6                            829
    x41       obj1                            1
    x41       c3                            790
    x41       c5                            584
    x41       c19                           708
    x41       c20                           584
    x42       obj1                            1
    x42       c10                           340
    x42       c11                           775
    x42       c26                           660
    x43       obj1                            1
    x43       c4                            560
    x43       c13                           505
    x43       c18                           598
    x43       c25                           235
    x43       c26                           688
    x43       c33                           522
    x43       c39                           369
    x43       c40                           161
    x44       obj1                            1
    x44       c18                           224
    x45       obj1                            1
    x45       c14                           433
    x45       c15                           892
    x45       c27                           945
    x45       c30                           843
    x45       c33                           319
    x45       c38                           400
    x46       obj1                            1
    x46       c6                            189
    x46       c40                           386
    x47       obj1                            1
    x47       c1                            460
    x47       c25                           852
    x47       c28                           354
    x47       c30                           202
    x47       c38                           768
    x48       obj1                            1
    x48       c1                            805
    x48       c11                           715
    x48       c13                           407
    x48       c25                           882
    x49       obj1                            1
    x49       c5                            695
    x49       c33                           208
    x49       c37                           987
    x50       obj1                            1
    x50       c10                           428
    x50       c21                           454
    x50       c25                           202
    x50       c31                           829
    x50       c37                           464
    x50       c40                           970
    x51       obj1                            1
    x51       c6                            526
    x51       c15                           615
    x52       obj1                            1
    x52       c26                           769
    x53       obj1                            1
    x53       c2                            578
    x53       c3                            810
    x53       c7                            300
    x53       c14                           252
    x53       c17                           144
    x53       c30                           598
    x53       c35                           742
    x54       obj1                            1
    x54       c19                           837
    x54       c21                           934
    x55       obj1                            1
    x55       c4                            280
    x55       c12                           614
    x55       c24                           967
    x55       c37                           132
    x55       c39                           326
    x56       obj1                            1
    x56       c10                           890
    x56       c17                           379
    x56       c22                           316
    x56       c32                           452
    x56       c34                           176
    x56       c37                           985
    x57       obj1                            1
    x57       c13                           961
    x57       c23                           168
    x58       obj1                            1
    x58       c1                           1000
    x58       c17                           681
    x59       obj1                            1
    x59       c28                           865
    x59       c38                           106
    x59       c40                           450
    x60       obj1                            1
    x60       c15                           297
    x60       c34                           331
    x61       obj1                            1
    x61       c8                            687
    x61       c10                           654
    x61       c34                           650
    x61       c40                           351
    x62       obj1                            1
    x62       c20                           817
    x62       c22                           308
    x62       c26                           104
    x63       obj1                            1
    x63       c9                            343
    x63       c35                           522
    x63       c39                           955
    x63       c40                           434
    x64       obj1                            1
    x64       c15                           850
    x64       c19                           505
    x64       c28                           730
    x64       c34                           807
    x65       obj1                            1
    x65       c4                            499
    x65       c5                            666
    x65       c6                            668
    x65       c13                           930
    x65       c14                           178
    x65       c32                           951
    x65       c37                           682
    x66       obj1                            1
    x66       c2                            824
    x66       c5                            552
    x66       c9                            719
    x66       c13                           412
    x66       c18                           746
    x66       c19                           667
    x66       c29                           819
    x66       c36                           345
    x67       obj1                            1
    x67       c16                           430
    x67       c17                           577
    x67       c32                           634
    x68       obj1                            1
    x68       c8                            606
    x68       c12                           903
    x68       c18                           444
    x68       c24                           913
    x68       c39                           320
    x68       c40                           245
    x69       obj1                            1
    x69       c6                            543
    x69       c9                            303
    x69       c11                           709
    x69       c24                           348
    x70       obj1                            1
    x70       c25                           269
    x70       c28                           987
    x70       c29                           456
    x70       c35                           815
    x71       obj1                            1
    x71       c8                            711
    x71       c26                           132
    x72       obj1                            1
    x72       c10                           276
    x72       c28                           183
    x72       c30                           717
    x73       obj1                            1
    x73       c6                            825
    x73       c14                           955
    x73       c16                           707
    x73       c26                           617
    x73       c29                           704
    x73       c37                           296
    x74       obj1                            1
    x74       c10                           476
    x74       c11                           807
    x74       c27                           784
    x75       obj1                            1
    x75       c27                           524
    x75       c32                           107
    x76       obj1                            1
    x76       c9                            714
    x76       c10                           835
    x76       c15                           590
    x76       c22                           844
    x76       c25                           971
    x76       c30                           670
    x77       obj1                            1
    x77       c32                           244
    x77       c39                           838
    x78       obj1                            1
    x78       c3                            841
    x78       c5                            710
    x78       c15                           671
    x78       c16                           440
    x78       c25                           132
    x78       c37                           133
    x79       obj1                            1
    x79       c4                            452
    x79       c5                            786
    x79       c8                            358
    x79       c25                           521
    x80       obj1                            1
    x80       c10                           356
    x80       c16                           155
    x80       c19                           522
    x80       c20                           459
    x80       c40                           881
    MARK0001  'MARKER'                 'INTEND'
RHS
    rhs       c1                           1682
    rhs       c2                           1299
    rhs       c3                           3079
    rhs       c4                           2390
    rhs       c5                           3425
    rhs       c6                           2970
    rhs       c7                           2539
    rhs       c8                           2467
    rhs       c9                           2287
    rhs       c10                          2568
    rhs       c11                          1503
    rhs       c12                          2668
    rhs       c13                          2056
    rhs       c14                          3724
    rhs       c15                          3723
    rhs       c16                          1711
    rhs       c17                          1485
    rhs       c18                          3187
    rhs       c19                          3526
    rhs       c20                          1641
    rhs       c21                          2378
    rhs       c22                          3360
    rhs       c23                          1720
    rhs       c24                          1800
    rhs       c25                          3083
    rhs       c26                          2431
    rhs       c27                          1629
    rhs       c28                          2296
    rhs       c29                          3736
    rhs       c30                          2245
    rhs       c31                          1519
    rhs       c32                          1718
    rhs       c33                          1020
    rhs       c34                          1473
    rhs       c35                          3066
    rhs       c36                           879
    rhs       c37                          2570
    rhs       c38                          1007
    rhs       c39                          3631
    rhs       c40                          2736
BOUNDS
 LI bnd       x1        0
 LI bnd       x2        0
 LI bnd       x3        0
 LI bnd       x4        0
 LI bnd       x5        0
 LI bnd       x6        0
 LI bnd       x7        0
 LI bnd       x8        0
 LI bnd       x9        0
 LI bnd       x10       0
 LI bnd       x11       0
 LI bnd       x12       0
 LI bnd       x13       0
 LI bnd       x14       0
 LI bnd       x15       0
 LI bnd       x16       0
 LI bnd       x17       0
 LI bnd       x18       0
 LI bnd       x19       0
 LI bnd       x20       0
 LI bnd       x21       0
 LI bnd       x22       0
 LI bnd       x23       0
 LI bnd       x24       0
 LI bnd       x25       0
 LI bnd       x26       0
 LI bnd       x27       0
 LI bnd       x28       0
 LI bnd       x29       0
 LI bnd       x30       0
 LI bnd       x31       0
 LI bnd       x32       0
 LI bnd       x33       0
 LI bnd       x34       0
 LI bnd       x35       0
 LI bnd       x36       0
 LI bnd       x37       0
 LI bnd       x38       0
 LI bnd       x39       0
 LI bnd       x40       0
 LI bnd       x41       0
 LI bnd       x42       0
 LI bnd       x43       0
 LI bnd       x44       0
 LI bnd       x45       0
 LI bnd       x46       0
 LI bnd       x47       0
 LI bnd       x48       0
 LI bnd       x49       0
 LI bnd       x50       0
 LI bnd       x51       0
 LI bnd       x52       0
 LI bnd       x53       0
 LI bnd       x54       0
 LI bnd       x55       0
 LI bnd       x56       0
 LI bnd       x57       0
 LI bnd       x58       0
 LI bnd       x59       0
 LI bnd       x60       0
 LI bnd       x61       0
 LI bnd       x62       0
 LI bnd       x63       0
 LI bnd       x64       0
 LI bnd       x65       0
 LI bnd       x66       0
 LI bnd       x67       0
 LI bnd       x68       0
 LI bnd       x69       0
 LI bnd       x70       0
 LI bnd       x71       0
 LI bnd       x72       0
 LI bnd       x73       0
 LI bnd       x74       0
 LI bnd       x75       0
 LI bnd       x76       0
 LI bnd       x77       0
 LI bnd       x78       0
 LI bnd       x79       0
 LI bnd       x80       0
ENDATA
